(set-logic HORN)
(declare-fun state (Int (Array Int Int) (Array Int Int) (Array Int Int) Int Int (Array Int Int) (Array Int Int) Int Int Int Int Int Int Int Int Int Int Int Int Int Int Bool Bool Bool Bool Bool (Array Int Int)) Bool)
(assert (forall ((|A_13| Int) (|B_13| (Array Int Int)) (|C_13| (Array Int Int)) (|D_13| (Array Int Int)) (|E_13| Int) (|F_13| Int) (|G_13| (Array Int Int)) (|H_13| (Array Int Int)) (|I_13| Int) (|J_13| Int) (|K_13| Int) (|L_13| Int) (|M_13| Int) (|N_13| Int) (|O_13| Int) (|P_13| Int) (|Q_13| Int) (|R_13| Int) (|S_13| Int) (|T_13| Int) (|U_13| Int) (|V_13| Int) (|X_8| Bool) (|.loc.5| Bool) (|.loc.6| Bool) (|.loc.7| Bool) (|.loc.8| Bool) (|X_0| (Array Int Int)) (|.x.304| Int) (|.x.302| (Array Int Int)) (|.x.300| Int) (|.x.298| (Array Int Int)) (|.x.295| Int) (|.x.297| (Array Int Int)) (|.x.296| (Array Int Int)) (|W_13| Bool) (|.x.305| Int) (|.x.306| Int) (|.x.307| Int) (|.x.310| Int) (|.loc.10| Bool) (|.loc.12| Bool) (|.loc.11| Bool) (|.x.314| Int) (|.x.309| Int) (|.x.316| Int) (|.loc.9| Bool) (|.x.315| Int) (|.x.311| Int) (|.x.313| Int) (|.x.312| Int) (|.x.308| Int) (|.x.303| Int) (|.x.299| Int) (|.x.301| (Array Int Int)) (|.xtv.1| (Array Int Int))) (=> (and (and (and (and .loc.5 (not .loc.6)) (not .loc.7)) (not .loc.8)) (and (and (and (and (= G_13 H_13) (not X_8)) (= I_13 J_13)) (= B_13 C_13)) (= E_13 F_13))) (state |A_13| |B_13| |C_13| |D_13| |E_13| |F_13| |G_13| |H_13| |I_13| |J_13| |K_13| |L_13| |M_13| |N_13| |O_13| |P_13| |Q_13| |R_13| |S_13| |T_13| |U_13| |V_13| |X_8| |.loc.5| |.loc.6| |.loc.7| |.loc.8| |X_0|))))
(assert (forall ((|A_13| Int) (|B_13| (Array Int Int)) (|C_13| (Array Int Int)) (|D_13| (Array Int Int)) (|E_13| Int) (|F_13| Int) (|G_13| (Array Int Int)) (|H_13| (Array Int Int)) (|I_13| Int) (|J_13| Int) (|K_13| Int) (|L_13| Int) (|M_13| Int) (|N_13| Int) (|O_13| Int) (|P_13| Int) (|Q_13| Int) (|R_13| Int) (|S_13| Int) (|T_13| Int) (|U_13| Int) (|V_13| Int) (|X_8| Bool) (|.loc.5| Bool) (|.loc.6| Bool) (|.loc.7| Bool) (|.loc.8| Bool) (|X_0| (Array Int Int)) (|.x.304| Int) (|.x.302| (Array Int Int)) (|.x.300| Int) (|.x.298| (Array Int Int)) (|.x.295| Int) (|.x.297| (Array Int Int)) (|.x.296| (Array Int Int)) (|W_13| Bool) (|.x.305| Int) (|.x.306| Int) (|.x.307| Int) (|.x.310| Int) (|.loc.10| Bool) (|.loc.12| Bool) (|.loc.11| Bool) (|.x.314| Int) (|.x.309| Int) (|.x.316| Int) (|.loc.9| Bool) (|.x.315| Int) (|.x.311| Int) (|.x.313| Int) (|.x.312| Int) (|.x.308| Int) (|.x.303| Int) (|.x.299| Int) (|.x.301| (Array Int Int)) (|.xtv.1| (Array Int Int))) (=> (and (state |A_13| |B_13| |C_13| |D_13| |E_13| |F_13| |G_13| |H_13| |I_13| |J_13| |K_13| |L_13| |M_13| |N_13| |O_13| |P_13| |Q_13| |R_13| |S_13| |T_13| |U_13| |V_13| |X_8| |.loc.5| |.loc.6| |.loc.7| |.loc.8| |X_0|) (let ((.def_38 (not .loc.6))) (let ((.def_40 (not .loc.7))) (let ((.def_42 (not .loc.8))) (let ((.def_72 (= B_13 .x.296))) (let ((.def_76 (= K_13 .x.305))) (let ((.def_79 (= L_13 .x.306))) (let ((.def_82 (= M_13 .x.307))) (let ((.def_85 (= P_13 .x.310))) (let ((.def_101 (not .loc.5))) (let ((.def_104 (= X_8 W_13))) (let ((.def_109 (not .loc.10))) (let ((.def_113 (not .loc.11))) (let ((.def_116 (= O_13 0))) (let ((.def_120 (and .def_82 (and .def_79 (and .def_72 .def_76))))) (let ((.def_121 (and .def_85 .def_120))) (let ((.def_129 (not .loc.12))) (let ((.def_134 (= T_13 .x.314))) (let ((.def_136 (= O_13 .x.309))) (let ((.def_139 (= V_13 .x.316))) (let ((.def_152 (select D_13 L_13))) (let ((.def_155 (<= N_13 U_13))) (let ((.def_169 (not .loc.9))) (let ((.def_174 (= U_13 .x.315))) (let ((.def_176 (= Q_13 .x.311))) (let ((.def_185 (and .def_85 (and .def_120 .def_136)))) (let ((.def_200 (and .def_176 .def_185))) (let ((.def_201 (and .def_134 .def_200))) (let ((.def_215 (= S_13 .x.313))) (let ((.def_217 (<= 0 S_13))) (let ((.def_221 (and .def_139 (and .def_174 .def_201)))) (let ((.def_224 (and .def_42 (and .loc.6 (and .loc.5 .def_221))))) (let ((.def_236 (and .def_82 (and .def_79 (and .def_76 (and X_8 .def_72)))))) (let ((.def_243 (and .def_139 (and .def_174 (and .def_134 (and .def_215 (and .def_176 (and .def_85 (and .def_136 .def_236))))))))) (let ((.def_297 (= R_13 .x.312))) (let ((.def_299 (= N_13 .x.308))) (and (and (= J_13 .x.304) (and (= H_13 .x.302) (and (= F_13 .x.300) (and (= D_13 .x.298) (and (= A_13 .x.295) (= C_13 .x.297)))))) (or (and (or (or (or (and (or (or (or (or (or (and (or (or (and (or (and (or (and (or (and .def_42 (and .loc.7 (and .loc.6 (and .loc.5 (and (and (and (and (and .def_72 W_13) .def_76) .def_79) .def_82) .def_85))))) (and (or X_8 (and (= .x.310 0) (= .x.296 (store B_13 L_13 0)))) (and (and (or W_13 (= .x.305 .x.310)) (and (and .def_38 (and .loc.8 .def_40)) .def_101)) .def_104))) (and (and .def_109 .loc.12) .def_113)) (and (or X_8 .def_116) (and (and .def_104 (and .def_101 (and .loc.11 (and .loc.10 (and .def_42 (and .loc.7 (and .loc.6 .def_121))))))) .def_129))) (and (and (and .def_134 .def_136) .def_139) .loc.9)) (and (or X_8 (and (= .x.314 .x.309) (and (= .x.314 (ite (<= 0 .x.316) 1 0)) (and (= .x.316 (select .def_152 (+ M_13 (* 4 U_13)))) (not .def_155))))) (and (and .def_129 (and .def_104 (and .def_38 (and .loc.11 (and .loc.10 (and .def_42 (and .loc.7 (and .loc.5 .def_121)))))))) .def_169))) (and .def_174 .def_176)) (and (or W_13 (= (+ U_13 (* (- 1) .x.315)) (- 1))) (and .def_129 (and .def_104 (and .def_101 (and .def_38 (and .def_40 (and .def_109 (and .loc.11 (and .loc.9 (and .def_42 (and .def_134 .def_185)))))))))))) (and (or X_8 (= .x.315 0)) (and .def_129 (and .def_104 (and .def_101 (and .def_38 (and .def_109 (and .loc.11 (and .loc.9 (and .def_42 (and .loc.7 (and .def_139 .def_201)))))))))))) .def_215) (and (or X_8 (not .def_217)) (and .def_169 (and .def_129 (and .def_104 (and .def_40 (and .def_109 (and .loc.11 .def_224)))))))) (and .def_169 (and .def_104 (and .def_38 (and .def_113 (and .def_109 (and .loc.12 (and .def_42 (and .loc.7 (and .loc.5 .def_243)))))))))) (and (or X_8 .def_155) (and .def_169 (and .def_104 (and .def_38 (and .def_113 (and .def_109 (and .loc.12 (and .def_42 (and .loc.7 (and .loc.5 (and .def_139 (and .def_174 (and .def_134 (and .def_200 .def_215))))))))))))))) (and .def_169 (and .def_129 (and .def_104 (and .def_101 (and .def_40 (and .def_109 (and .loc.11 (and .def_42 (and .loc.6 .def_243)))))))))) (and (or X_8 (= .x.313 (select .def_152 (+ M_13 (* 4 N_13))))) (and .def_129 (and .def_104 (and .def_101 (and .def_40 (and .def_113 (and .loc.10 (and .loc.9 (and .def_42 (and .loc.6 .def_221))))))))))) (and .def_297 .def_299)) (and (or X_8 (and .def_217 (= (+ N_13 (* (- 1) .x.308)) (- 1)))) (and .def_169 (and .def_129 (and .def_104 (and .def_40 (and .def_113 (and .loc.10 .def_224)))))))) (and (or X_8 (not .def_116)) (and .def_169 (and .def_129 (and .def_104 (and .def_101 (and .def_113 (and .def_109 (and .def_42 (and .loc.7 (and .loc.6 (and .def_139 (and .def_174 (and .def_134 (and .def_215 (and .def_297 (and .def_176 (and .def_85 (and .def_136 (and .def_120 .def_299)))))))))))))))))))) (and .def_169 (and .def_129 (and .def_104 (and .def_113 (and .def_109 (and .def_42 (and .loc.7 (and .loc.6 (and .loc.5 (and .def_139 (and .def_174 (and .def_134 (and .def_215 (and .def_297 (and .def_176 (and .def_85 (and .def_136 (and .def_236 .def_299))))))))))))))))))) (and (= I_13 .x.303) (and (= E_13 .x.299) (= G_13 .x.301)))) (and (or X_8 (and (and (= .x.303 0) (= .x.299 0)) (= X_0 (store B_13 0 0)))) (and (or W_13 (and (and (and (and (and (and (not (<= .x.295 .x.306)) (not (= .x.306 0))) (= .x.308 0)) (= .x.307 0)) (= (select X_0 .x.306) 0)) (= .x.301 (store G_13 .x.306 400000))) (= .x.296 (store X_0 .x.306 1)))) (and .def_169 (and .def_129 (and .def_104 (and .def_38 (and .def_40 (and .def_113 (and .loc.10 (and .def_42 (and .loc.5 (and .def_134 (and .def_76 .def_136))))))))))))))))))))))))))))))))))))))))))))))))))) (state |.x.295| |.x.296| |.x.297| |.x.298| |.x.299| |.x.300| |.x.301| |.x.302| |.x.303| |.x.304| |.x.305| |.x.306| |.x.307| |.x.308| |.x.309| |.x.310| |.x.311| |.x.312| |.x.313| |.x.314| |.x.315| |.x.316| |W_13| |.loc.9| |.loc.10| |.loc.11| |.loc.12| |.xtv.1|))))
(assert (forall ((|A_13| Int) (|B_13| (Array Int Int)) (|C_13| (Array Int Int)) (|D_13| (Array Int Int)) (|E_13| Int) (|F_13| Int) (|G_13| (Array Int Int)) (|H_13| (Array Int Int)) (|I_13| Int) (|J_13| Int) (|K_13| Int) (|L_13| Int) (|M_13| Int) (|N_13| Int) (|O_13| Int) (|P_13| Int) (|Q_13| Int) (|R_13| Int) (|S_13| Int) (|T_13| Int) (|U_13| Int) (|V_13| Int) (|X_8| Bool) (|.loc.5| Bool) (|.loc.6| Bool) (|.loc.7| Bool) (|.loc.8| Bool) (|X_0| (Array Int Int)) (|.x.304| Int) (|.x.302| (Array Int Int)) (|.x.300| Int) (|.x.298| (Array Int Int)) (|.x.295| Int) (|.x.297| (Array Int Int)) (|.x.296| (Array Int Int)) (|W_13| Bool) (|.x.305| Int) (|.x.306| Int) (|.x.307| Int) (|.x.310| Int) (|.loc.10| Bool) (|.loc.12| Bool) (|.loc.11| Bool) (|.x.314| Int) (|.x.309| Int) (|.x.316| Int) (|.loc.9| Bool) (|.x.315| Int) (|.x.311| Int) (|.x.313| Int) (|.x.312| Int) (|.x.308| Int) (|.x.303| Int) (|.x.299| Int) (|.x.301| (Array Int Int)) (|.xtv.1| (Array Int Int))) (=> (state |A_13| |B_13| |C_13| |D_13| |E_13| |F_13| |G_13| |H_13| |I_13| |J_13| |K_13| |L_13| |M_13| |N_13| |O_13| |P_13| |Q_13| |R_13| |S_13| |T_13| |U_13| |V_13| |X_8| |.loc.5| |.loc.6| |.loc.7| |.loc.8| |X_0|) (not (and X_8 (and .loc.8 (and (and .loc.5 (not .loc.6)) (not .loc.7))))))))
(check-sat)
